#######################################################################
#                 Cambridge Crystallographic Data Centre
#                                CCDC
#######################################################################
# If this CIF has been generated from an entry in the Cambridge
# Structural Database, then it will include bibliographic, chemical,
# crystal, experimental, refinement or atomic coordinate data resulting
# from the CCDC's data processing and validation procedures.
#######################################################################
data_CSD_CIF_FEHGAB
_audit_creation_date               2005-05-03
_audit_creation_method             CSD-ConQuest-V1
loop_
  _publ_author_name
 'M.D.Santana'
 'A.A.Lozano'
 'G.Garcia'
 'G.Lopez'
 'J.Perez'

_chemical_name_systematic
;
(2-Acetoxybenzoato)-(2,4,4,9-tetramethyl-1,5,9-triazacyclododeca-1-ene)-nickel
(ii) hexafluorophosphate monohydrate
;
_chemical_formula_moiety
;
C22 H34 N3 Ni1 O4 1+,F6 P1 1-,H2 O1
;
_chemical_formula_sum              'C22 H36 F6 N3 Ni1 O5 P1'
loop_
  _atom_type_symbol
  _atom_type_radius_bond
 C 0.68
 H 0.23
 F 0.64
 N 0.68
 Ni 1.33
 O 0.68
 P 1.05

#END
loop_
  _space_group_symop_id
  _space_group_symop_operation_xyz
 1 x,y,z
 2 -x,1/2+y,-z

_symmetry_cell_setting             monoclinic
_symmetry_Int_Tables_number        4
_symmetry_space_group_name_H-M     'P 21'
_cell_length_a                     8.2175(4)
_cell_length_b                     15.2313(8)
_cell_length_c                     10.7289(5)
_cell_angle_alpha                  90
_cell_angle_beta                   98.820(1)
_cell_angle_gamma                  90
_cell_volume                       1326.984
_cell_formula_units_Z              2
_exptl_crystal_colour              'blue'
_exptl_crystal_density_diffrn      1.567
_exptl_crystal_description         'block'
_exptl_crystal_preparation         'diethyl ether/acetone'
_diffrn_ambient_temperature        100
#These two values have been output from a single CSD field.
_refine_ls_R_factor_gt             0.0405
_refine_ls_wR_factor_gt            0.0405
loop_
  _atom_site_label
  _atom_site_type_symbol
  _atom_site_fract_x
  _atom_site_fract_y
  _atom_site_fract_z
 O1 O -0.1889(3) 0.60884(15) 0.1202(2)
 O2 O -0.0698(3) 0.70563(15) 0.2564(2)
 O3 O -0.3131(3) 0.71478(19) -0.0956(2)
 O4 O -0.5137(4) 0.61366(19) -0.1061(3)
 C14 C -0.1862(4) 0.6842(2) 0.1671(3)
 C15 C -0.3147(4) 0.7513(2) 0.1244(3)
 C16 C -0.3852(5) 0.7599(2) -0.0013(3)
 C17 C -0.5012(4) 0.8254(2) -0.0375(3)
 C18 C -0.5447(4) 0.8820(3) 0.0519(4)
 C19 C -0.4814(5) 0.8718(3) 0.1767(4)
 C20 C -0.3619(5) 0.8077(3) 0.2119(3)
 C21 C -0.3895(5) 0.6407(2) -0.1406(4)
 C22 C -0.3071(5) 0.5979(2) -0.2349(4)
 H28 H -0.54990 0.83100 -0.12340
 H29 H -0.61930 0.92870 0.02680
 H30 H -0.51840 0.90790 0.23870
 H31 H -0.31260 0.80300 0.29770
 H32 H -0.20990 0.63210 -0.24740
 H33 H -0.38290 0.59410 -0.31470
 H34 H -0.27310 0.53870 -0.20610

_database_code_CSD                 FEHGAB
_database_code_depnum_ccdc_archive  'CCDC 249398'
_journal_coden_Cambridge           222
_journal_name_full                 'Dalton Trans. '
_journal_page_first                104
_journal_year                      2005
